(set-logic LIA)

(declare-const y Int)
(declare-const y! Int)
(declare-const x Int)
(declare-const x! Int)

(declare-const y_22 Int)
(declare-const y_16 Int)
(declare-const y_14 Int)
(declare-const x_21 Int)
(declare-const x_15 Int)
(declare-const x_13 Int)

(define-fun inv-f((x Int)(y Int)) Bool
